4 
5  22 35 49 58 
6  13 20 28 35 40 45 50 55 
7  00 05 10 15 20 25 30 35 40 45 50 55 
8  00 05 10 15 20 25 30 35 40 47 55 
9  03 11 18 26 33 40 48 55 
10  03 10 18 25 33 40 48 55 
11  03 10 18 25 33 40 48 55 
12  03 10 18 25 33 40 48 55 
13  03 11 19 26 34 41 49 56 
14  03 11 19 26 34 40 48 55 
15  00 05 10 15 20 25 30 35 40 45 50 55 
16  00 05 10 15 20 25 30 35 40 45 50 55 
17  00 05 10 15 20 25 30 35 40 45 50 55 
18  00 05 10 15 20 25 30 35 44 50 57 
19  03 10 18 25 33 41 48 55 
20  03 10 18 25 32 40 48 55 
21  02 10 18 25 33 40 48 55 
22  04 19 36 50 
23  10 25 44 
0 
